(declare-fun temp559_1 () (_ BitVec 64))
(declare-fun var75937 () (_ BitVec 64))
(declare-fun ARGNAME_input_NAMEEND_DIM () (_ BitVec 64))
(declare-fun temp559_2 () (_ BitVec 64))
(declare-fun var141643 () (_ BitVec 64))
(declare-fun ARGNAME_offset_NAMEEND () (_ BitVec 64))
(declare-fun temp559_3 () (_ BitVec 64))
(declare-fun var71509 () (_ BitVec 64))
(declare-fun temp559_4 () (_ BitVec 64))
(declare-fun temp559_5 () (_ BitVec 64))
(declare-fun temp559_6 () (_ BitVec 64))
(declare-fun ARGNAME_input_NAMEEND_DIMSIZE
             ()
             (Array (_ BitVec 64) (_ BitVec 64)))
(declare-fun temp559_7 () (_ BitVec 64))
(declare-fun temp559_8 () (_ BitVec 64))
(declare-fun temp559_9 () (_ BitVec 64))
(declare-fun temp559_10 () (_ BitVec 64))
(declare-fun temp559_11 () (_ BitVec 64))
(declare-fun temp559_12 () (_ BitVec 64))
(declare-fun temp559_13 () (_ BitVec 64))
(declare-fun temp559_14 () (_ BitVec 64))
(declare-fun temp559_15 () (_ BitVec 64))
(declare-fun temp559_16 () (_ BitVec 64))
(declare-fun temp559_17 () (_ BitVec 64))
(declare-fun temp559_18 () (_ BitVec 64))
(declare-fun temp559_19 () (_ BitVec 64))
(declare-fun temp559_20 () (_ BitVec 64))
(declare-fun temp559_21 () (_ BitVec 64))
(declare-fun temp559_22 () (_ BitVec 64))
(declare-fun temp559_23 () (_ BitVec 64))
(declare-fun temp559_24 () (_ BitVec 64))
(declare-fun var75972 () (_ BitVec 64))
(declare-fun temp559_25 () (_ BitVec 64))
(declare-fun var2692541 () (_ BitVec 64))
(declare-fun var2692553 () (_ BitVec 64))
(declare-fun temp559_26 () (_ BitVec 64))
(declare-fun var5838269 () (_ BitVec 64))
(declare-fun var5838281 () (_ BitVec 64))
(assert (= temp559_1 #x0000000000000001))
(assert (= var75937 (bvadd ARGNAME_input_NAMEEND_DIM temp559_1)))
(assert (= temp559_2 #x0000000000000000))
(assert (= var141643
   (ite (bvslt ARGNAME_offset_NAMEEND temp559_2)
        #x0000000000000001
        #x0000000000000000)))
(assert (= temp559_3 #xffffffffffffffff))
(assert (= var71509 temp559_3))
(assert (= temp559_4 #x0000000000000000))
(assert (= temp559_5 temp559_4))
(assert (= temp559_6 (select ARGNAME_input_NAMEEND_DIMSIZE temp559_5)))
(assert (= temp559_7 #x0000000000000001))
(assert (= temp559_8 temp559_7))
(assert (= temp559_9 (select ARGNAME_input_NAMEEND_DIMSIZE temp559_8)))
(assert (= temp559_10 #x0000000000000002))
(assert (= temp559_11 temp559_10))
(assert (= temp559_12 (select ARGNAME_input_NAMEEND_DIMSIZE temp559_11)))
(assert (= temp559_13 #x0000000000000003))
(assert (= temp559_14 temp559_13))
(assert (= temp559_15 (select ARGNAME_input_NAMEEND_DIMSIZE temp559_14)))
(assert (= temp559_16 #x0000000000000004))
(assert (= temp559_17 temp559_16))
(assert (= temp559_18 (select ARGNAME_input_NAMEEND_DIMSIZE temp559_17)))
(assert (= temp559_19 #x0000000000000005))
(assert (= temp559_20 temp559_19))
(assert (= temp559_21 (select ARGNAME_input_NAMEEND_DIMSIZE temp559_20)))
(assert (= temp559_22 #x0000000000000000))
(assert (= temp559_23
   (ite (bvslt var71509 temp559_22)
        (bvadd ARGNAME_input_NAMEEND_DIM var71509)
        var71509)))
(assert (= temp559_24 (select ARGNAME_input_NAMEEND_DIMSIZE temp559_23)))
(assert (= var75972 temp559_24))
(assert (bvslt (ite (bvslt var71509 temp559_22)
            (bvadd ARGNAME_input_NAMEEND_DIM var71509)
            var71509)
       ARGNAME_input_NAMEEND_DIM))
(assert (= temp559_25 #x0000000000000001))
(assert (= var2692541 temp559_25))
(assert (= var2692553 var2692541))
(assert (= temp559_26 #x0000000000000001))
(assert (= var5838269 temp559_26))
(assert (= var5838281 var5838269))
(model-add temp559_1 () (_ BitVec 64) #x0000000000000001)
(model-add var75937
           ()
           (_ BitVec 64)
           (bvadd #x0000000000000001 ARGNAME_input_NAMEEND_DIM))
(model-add temp559_2 () (_ BitVec 64) #x0000000000000000)
(model-add var141643
           ()
           (_ BitVec 64)
           (ite (bvsle #x0000000000000000 ARGNAME_offset_NAMEEND)
                #x0000000000000000
                #x0000000000000001))
(model-add temp559_3 () (_ BitVec 64) #xffffffffffffffff)
(model-add var71509 () (_ BitVec 64) #xffffffffffffffff)
(model-add temp559_4 () (_ BitVec 64) #x0000000000000000)
(model-add temp559_5 () (_ BitVec 64) #x0000000000000000)
(model-add temp559_6
           ()
           (_ BitVec 64)
           (select ARGNAME_input_NAMEEND_DIMSIZE #x0000000000000000))
(model-add temp559_7 () (_ BitVec 64) #x0000000000000001)
(model-add temp559_8 () (_ BitVec 64) #x0000000000000001)
(model-add temp559_9
           ()
           (_ BitVec 64)
           (select ARGNAME_input_NAMEEND_DIMSIZE #x0000000000000001))
(model-add temp559_10 () (_ BitVec 64) #x0000000000000002)
(model-add temp559_11 () (_ BitVec 64) #x0000000000000002)
(model-add temp559_12
           ()
           (_ BitVec 64)
           (select ARGNAME_input_NAMEEND_DIMSIZE #x0000000000000002))
(model-add temp559_13 () (_ BitVec 64) #x0000000000000003)
(model-add temp559_14 () (_ BitVec 64) #x0000000000000003)
(model-add temp559_15
           ()
           (_ BitVec 64)
           (select ARGNAME_input_NAMEEND_DIMSIZE #x0000000000000003))
(model-add temp559_16 () (_ BitVec 64) #x0000000000000004)
(model-add temp559_17 () (_ BitVec 64) #x0000000000000004)
(model-add temp559_18
           ()
           (_ BitVec 64)
           (select ARGNAME_input_NAMEEND_DIMSIZE #x0000000000000004))
(model-add temp559_19 () (_ BitVec 64) #x0000000000000005)
(model-add temp559_20 () (_ BitVec 64) #x0000000000000005)
(model-add temp559_21
           ()
           (_ BitVec 64)
           (select ARGNAME_input_NAMEEND_DIMSIZE #x0000000000000005))
(model-add temp559_22 () (_ BitVec 64) #x0000000000000000)
(model-add temp559_23
           ()
           (_ BitVec 64)
           (bvadd #xffffffffffffffff ARGNAME_input_NAMEEND_DIM))
(model-add temp559_24
           ()
           (_ BitVec 64)
           (select ARGNAME_input_NAMEEND_DIMSIZE
                   (bvadd #xffffffffffffffff ARGNAME_input_NAMEEND_DIM)))
(model-add var75972
           ()
           (_ BitVec 64)
           (select ARGNAME_input_NAMEEND_DIMSIZE
                   (bvadd #xffffffffffffffff ARGNAME_input_NAMEEND_DIM)))
(model-add temp559_25 () (_ BitVec 64) #x0000000000000001)
(model-add var2692541 () (_ BitVec 64) #x0000000000000001)
(model-add var2692553 () (_ BitVec 64) #x0000000000000001)
(model-add temp559_26 () (_ BitVec 64) #x0000000000000001)
(model-add var5838269 () (_ BitVec 64) #x0000000000000001)
(model-add var5838281 () (_ BitVec 64) #x0000000000000001)






